; benchmark generated from python API
(set-info :status unknown)
(declare-fun x_month () Int)
(declare-fun x_day () Int)
(declare-fun x_year () Int)
(assert
 (>= x_month 1))
(assert
 (<= x_month 12))
(assert
 (>= x_day 1))
(assert
 (<= x_day 31))
(assert
 (let (($x385 (<= x_day 28)))
 (let (($x781 (<= x_day 29)))
 (let (($x553 (= (mod x_year 400) 0)))
 (let (($x623 (= (mod x_year 4) 0)))
 (let (($x634 (ite (or (and $x623 (and (distinct (mod x_year 100) 0) true)) $x553) $x781 $x385)))
 (let (($x331 (= x_month 2)))
 (ite $x331 $x634 true))))))))
(assert
 (let (($x773 (<= x_day 30)))
 (let (($x311 (or (= x_month 4) (= x_month 6) (= x_month 9) (= x_month 11))))
 (ite $x311 $x773 true))))
(assert
 (let (($x856 (= x_year 2023)))
 (let (($x637 (and $x856 (or (> x_month 1) (and (= x_month 1) (>= x_day 1))))))
 (or (> x_year 2023) $x637))))
(assert
 (let ((?x793 (+ (mod (- (+ x_month (+ (* 0 12) 0)) 1) 12) 1)))
(let ((?x659 (ite (or (= ?x793 4) (= ?x793 6) (= ?x793 9) (= ?x793 11)) 30 31)))
(let ((?x407 (+ 0 (div (- (+ x_month (+ (* 0 12) 0)) 1) 12))))
(let ((?x862 (+ x_year ?x407)))
(let (($x621 (or (and (= (mod ?x862 4) 0) (and (distinct (mod ?x862 100) 0) true)) (= (mod ?x862 400) 0))))
(let ((?x678 (ite (= ?x793 2) (ite $x621 29 28) ?x659)))
(let (($x276 (< x_day 1)))
(let ((?x472 (ite $x276 1 (ite (> x_day ?x678) ?x678 x_day))))
(let ((?x707 (ite (< ?x472 1) 1 (ite (> ?x472 ?x678) ?x678 ?x472))))
(let ((?x868 (ite (= 2 ?x793) (ite $x621 31 31) (ite (= 1 ?x793) (ite $x621 0 0) 0))))
(let ((?x451 (ite (= 4 ?x793) (ite $x621 91 90) (ite (= 3 ?x793) (ite $x621 60 59) ?x868))))
(let ((?x675 (ite (= 6 ?x793) (ite $x621 152 151) (ite (= 5 ?x793) (ite $x621 121 120) ?x451))))
(let ((?x507 (ite (= 8 ?x793) (ite $x621 213 212) (ite (= 7 ?x793) (ite $x621 182 181) ?x675))))
(let ((?x764 (ite (= 10 ?x793) (ite $x621 274 273) (ite (= 9 ?x793) (ite $x621 244 243) ?x507))))
(let ((?x871 (ite (= 12 ?x793) (ite $x621 335 334) (ite (= 11 ?x793) (ite $x621 305 304) ?x764))))
(let ((?x419 (- (+ (* 365 (- ?x862 1)) (div (- ?x862 1) 4)) (div (- ?x862 1) 100))))
(let ((?x3297 (- (+ (+ (+ ?x419 (div (- ?x862 1) 400)) ?x871) (- ?x707 1)) 730179)))
(let ((?x466 (+ (+ ?x3297 31) 730179)))
(let ((?x751 (mod ?x466 146097)))
(let ((?x1318 (div ?x751 36524)))
(let ((?x639 (ite (<= 4 ?x1318) 3 ?x1318)))
(let ((?x1431 (- ?x751 (* ?x639 36524))))
(let ((?x573 (mod ?x1431 1461)))
(let ((?x715 (div ?x573 365)))
(let ((?x653 (ite (<= 4 ?x715) 3 ?x715)))
(let ((?x648 (+ (+ (* (div ?x466 146097) 400) (* ?x639 100)) (* (div ?x1431 1461) 4))))
(let ((?x247 (+ (+ ?x648 ?x653) 1)))
(let (($x273 (or (and (= (mod ?x247 4) 0) (and (distinct (mod ?x247 100) 0) true)) (= (mod ?x247 400) 0))))
(let ((?x746 (- ?x573 (* ?x653 365))))
(let ((?x865 (ite $x273 31 31)))
(let (($x724 (>= ?x746 ?x865)))
(let ((?x869 (ite $x724 (+ (- ?x746 ?x865) 1) (+ (- ?x746 (ite $x273 0 0)) 1))))
(let ((?x952 (ite $x273 60 59)))
(let (($x587 (>= ?x746 ?x952)))
(let ((?x1283 (ite $x273 91 90)))
(let (($x612 (>= ?x746 ?x1283)))
(let ((?x642 (ite $x612 (+ (- ?x746 ?x1283) 1) (ite $x587 (+ (- ?x746 ?x952) 1) ?x869))))
(let ((?x953 (ite $x273 121 120)))
(let (($x580 (>= ?x746 ?x953)))
(let ((?x2350 (ite $x273 152 151)))
(let (($x729 (>= ?x746 ?x2350)))
(let ((?x955 (ite $x729 (+ (- ?x746 ?x2350) 1) (ite $x580 (+ (- ?x746 ?x953) 1) ?x642))))
(let ((?x2213 (ite $x273 182 181)))
(let (($x226 (>= ?x746 ?x2213)))
(let ((?x2982 (ite $x273 213 212)))
(let (($x948 (>= ?x746 ?x2982)))
(let ((?x242 (ite $x948 (+ (- ?x746 ?x2982) 1) (ite $x226 (+ (- ?x746 ?x2213) 1) ?x955))))
(let ((?x2091 (ite $x273 244 243)))
(let (($x891 (>= ?x746 ?x2091)))
(let ((?x1900 (ite $x273 274 273)))
(let (($x892 (>= ?x746 ?x1900)))
(let ((?x734 (ite $x892 (+ (- ?x746 ?x1900) 1) (ite $x891 (+ (- ?x746 ?x2091) 1) ?x242))))
(let ((?x388 (ite $x273 305 304)))
(let (($x879 (>= ?x746 ?x388)))
(let ((?x737 (ite $x273 335 334)))
(let (($x992 (>= ?x746 ?x737)))
(let ((?x2212 (ite $x992 (+ (- ?x746 ?x737) 1) (ite $x879 (+ (- ?x746 ?x388) 1) ?x734))))
(let (($x656 (= 0 31)))
(let ((?x599 (+ (mod (- (+ x_month (+ (* 0 12) 1)) 1) 12) 1)))
(let ((?x754 (ite (or (= ?x599 4) (= ?x599 6) (= ?x599 9) (= ?x599 11)) 30 31)))
(let ((?x694 (+ 0 (div (- (+ x_month (+ (* 0 12) 1)) 1) 12))))
(let ((?x619 (+ x_year ?x694)))
(let (($x227 (or (and (= (mod ?x619 4) 0) (and (distinct (mod ?x619 100) 0) true)) (= (mod ?x619 400) 0))))
(let ((?x875 (ite (= ?x599 2) (ite $x227 29 28) ?x754)))
(let ((?x418 (ite $x276 1 (ite (> x_day ?x875) ?x875 x_day))))
(let ((?x280 (ite (< ?x418 1) 1 (ite (> ?x418 ?x875) ?x875 ?x418))))
(let ((?x841 (ite (= 2 ?x599) (ite $x227 31 31) (ite (= 1 ?x599) (ite $x227 0 0) 0))))
(let ((?x774 (ite (= 4 ?x599) (ite $x227 91 90) (ite (= 3 ?x599) (ite $x227 60 59) ?x841))))
(let ((?x241 (ite (= 6 ?x599) (ite $x227 152 151) (ite (= 5 ?x599) (ite $x227 121 120) ?x774))))
(let ((?x369 (ite (= 8 ?x599) (ite $x227 213 212) (ite (= 7 ?x599) (ite $x227 182 181) ?x241))))
(let ((?x380 (ite (= 10 ?x599) (ite $x227 274 273) (ite (= 9 ?x599) (ite $x227 244 243) ?x369))))
(let ((?x299 (ite (= 12 ?x599) (ite $x227 335 334) (ite (= 11 ?x599) (ite $x227 305 304) ?x380))))
(let ((?x625 (- (+ (* 365 (- ?x619 1)) (div (- ?x619 1) 4)) (div (- ?x619 1) 100))))
(let ((?x554 (- (+ (+ (+ ?x625 (div (- ?x619 1) 400)) ?x299) (- ?x280 1)) 730179)))
(let ((?x249 (+ (+ ?x554 0) 730179)))
(let ((?x810 (mod ?x249 146097)))
(let ((?x847 (div ?x810 36524)))
(let ((?x817 (ite (<= 4 ?x847) 3 ?x847)))
(let ((?x655 (- ?x810 (* ?x817 36524))))
(let ((?x492 (mod ?x655 1461)))
(let ((?x670 (div ?x492 365)))
(let ((?x606 (ite (<= 4 ?x670) 3 ?x670)))
(let ((?x528 (+ (+ (* (div ?x249 146097) 400) (* ?x817 100)) (* (div ?x655 1461) 4))))
(let ((?x473 (+ (+ ?x528 ?x606) 1)))
(let (($x598 (or (and (= (mod ?x473 4) 0) (and (distinct (mod ?x473 100) 0) true)) (= (mod ?x473 400) 0))))
(let ((?x671 (- ?x492 (* ?x606 365))))
(let ((?x340 (ite $x598 31 31)))
(let (($x363 (>= ?x671 ?x340)))
(let ((?x326 (ite $x363 (+ (- ?x671 ?x340) 1) (+ (- ?x671 (ite $x598 0 0)) 1))))
(let ((?x883 (ite $x598 60 59)))
(let (($x491 (>= ?x671 ?x883)))
(let ((?x397 (ite $x598 91 90)))
(let (($x680 (>= ?x671 ?x397)))
(let ((?x687 (ite $x680 (+ (- ?x671 ?x397) 1) (ite $x491 (+ (- ?x671 ?x883) 1) ?x326))))
(let ((?x414 (ite $x598 121 120)))
(let (($x494 (>= ?x671 ?x414)))
(let ((?x477 (ite $x598 152 151)))
(let (($x604 (>= ?x671 ?x477)))
(let ((?x717 (ite $x604 (+ (- ?x671 ?x477) 1) (ite $x494 (+ (- ?x671 ?x414) 1) ?x687))))
(let ((?x600 (ite $x598 182 181)))
(let (($x770 (>= ?x671 ?x600)))
(let ((?x512 (ite $x598 213 212)))
(let (($x348 (>= ?x671 ?x512)))
(let ((?x689 (ite $x348 (+ (- ?x671 ?x512) 1) (ite $x770 (+ (- ?x671 ?x600) 1) ?x717))))
(let ((?x214 (ite $x598 244 243)))
(let (($x628 (>= ?x671 ?x214)))
(let ((?x425 (ite $x598 274 273)))
(let (($x323 (>= ?x671 ?x425)))
(let ((?x233 (ite $x323 (+ (- ?x671 ?x425) 1) (ite $x628 (+ (- ?x671 ?x214) 1) ?x689))))
(let ((?x506 (ite $x598 305 304)))
(let (($x449 (>= ?x671 ?x506)))
(let ((?x1189 (ite $x598 335 334)))
(let (($x515 (>= ?x671 ?x1189)))
(let ((?x660 (ite $x515 (+ (- ?x671 ?x1189) 1) (ite $x449 (+ (- ?x671 ?x506) 1) ?x233))))
(let (($x345 (= 0 0)))
(let ((?x611 (ite $x580 5 (ite $x612 4 (ite $x587 3 (ite $x724 2 1))))))
(let ((?x943 (ite $x891 9 (ite $x948 8 (ite $x226 7 (ite $x729 6 ?x611))))))
(let ((?x224 (ite $x992 12 (ite $x879 11 (ite $x892 10 ?x943)))))
(let ((?x1281 (ite $x656 ?x793 ?x224)))
(let ((?x489 (ite $x494 5 (ite $x680 4 (ite $x491 3 (ite $x363 2 1))))))
(let ((?x320 (ite $x628 9 (ite $x348 8 (ite $x770 7 (ite $x604 6 ?x489))))))
(let ((?x465 (ite $x345 ?x599 (ite $x515 12 (ite $x449 11 (ite $x323 10 ?x320))))))
(let (($x536 (or (< ?x465 ?x1281) (and (= ?x465 ?x1281) (<= (ite $x345 ?x280 ?x660) (ite $x656 ?x707 ?x2212))))))
(let (($x2268 (or (< (ite $x345 ?x619 ?x473) (ite $x656 ?x862 ?x247)) (and (= (ite $x345 ?x619 ?x473) (ite $x656 ?x862 ?x247)) $x536))))
(not $x2268))))))))))))))))))))))))))))))))))))))))))))))))))))))))))))))))))))))))))))))))))))))))))))))))))))))))))))))))))))))))))))))
(check-sat)
